250 150
1 81 2 5 7 13 14 17 21 22 23 37 39 42 44 47 48 51 55 57 58 59 61 62 65 66 67 70 75 78 83 85 86 87 88 90 92 100 103 104 112 113 118 120 129 137 142 143 145 147 148 153 154 155 157 160 163 164 165 172 178 181 183 198 199 203 209 212 219 220 223 224 228 234 235 236 238 242
2 39 4 5 7 12 13 14 17 18 21 22 23 29 37 39 41 42 43 44 47 48 51 55 56 57 58 59 61 62 63 65 66 67 70 75 78 80 83 85 86 87 88 89 90 91 92 94 96 100 102 103 104 112 113 114 118 119 120 121 129 137 139 141 142 143 144 145 147 148 152 153 154 155 157 159 160 163 164 165 169 171 172 174 176 178 179 181 183 187 192 198 199 203 207 209 210 212 218 219 220 221 223 224 225 228 231 232 234 235 236 238 242 244 246
3 75 5 13 14 17 21 23 44 47 48 51 55 57 58 59 61 62 65 66 75 83 85 86 90 92 100 103 112 113 120 129 137 142 143 147 153 155 157 160 163 164 165 181 183 199 203 209 212 220 223 224 228 234 236 238 242
4 66 5 7 13 14 17 21 22 23 37 39 42 44 47 48 51 55 57 58 59 61 62 63 65 66 67 70 75 78 83 85 86 87 88 90 92 94 100 102 103 104 112 113 118 120 129 137 142 143 145 147 148 153 154 155 157 160 163 164 165 169 172 178 181 183 198 199 203 209 212 219 220 223 224 228 234 235 236 238 242
5 85 7 12 13 14 17 18 20 21 22 23 29 32 37 38 39 41 42 43 44 47 48 51 54 55 56 57 58 59 61 62 63 65 66 67 70 71 74 75 78 79 80 82 83 85 86 87 88 89 90 91 92 94 96 99 100 102 103 104 107 112 113 114 115 118 119 120 121 124 125 127 129 133 136 137 139 141 142 143 144 145 146 147 148 152 153 154 155 157 159 160 161 163 164 165 167 169 170 171 172 173 174 176 178 179 181 183 184 187 190 192 196 198 199 200 203 207 209 210 211 212 218 219 220 221 223 224 225 228 231 232 234 235 236 238 242 244 246 247 248
6 36 14 17 21 44 48 51 55 58 61 62 75 83 85 86 92 100 112 120 137 142 143 147 153 155 157 160 164 165 181 183 199 212 220 223 228 236
7 60 12 13 14 17 21 22 23 29 37 39 41 42 43 44 47 48 51 55 56 57 58 59 61 62 63 65 66 67 70 75 78 80 83 85 86 87 88 90 92 94 96 100 102 103 104 112 113 114 118 119 120 121 129 137 139 141 142 143 144 145 147 148 152 153 154 155 157 159 160 163 164 165 169 171 172 174 178 179 181 183 187 192 198 199 203 207 209 210 212 219 220 221 223 224 225 228 232 234 235 236 238 242 244 246
8 56
9 50 21 48 51 55 58 61 75 83 86 92 112 142 143 153 160 165 181 183 228
10 75
11 75
12 37 13 14 17 21 22 23 29 37 39 42 44 47 48 51 55 57 58 59 61 62 63 65 66 67 70 75 78 80 83 85 86 87 88 90 92 94 100 102 103 104 112 113 118 119 120 121 129 137 141 142 143 144 145 147 148 153 154 155 157 159 160 163 164 165 169 171 172 178 181 183 192 198 199 203 209 210 212 219 220 221 223 224 228 234 235 236 238 242 246
13 87 14 17 18 20 21 22 23 29 30 32 35 37 38 39 41 42 43 44 47 48 51 54 55 56 57 58 59 61 62 63 65 66 67 70 71 74 75 77 78 79 80 82 83 85 86 87 88 89 90 91 92 94 96 99 100 102 103 104 107 112 113 114 115 118 119 120 121 122 124 125 127 129 133 136 137 139 141 142 143 144 145 146 147 148 151 152 153 154 155 156 157 159 160 161 163 164 165 167 168 169 170 171 172 173 174 176 178 179 181 183 184 187 190 192 196 198 199 200 203 207 209 210 211 212 218 219 220 221 223 224 225 228 231 232 234 235 236 238 242 244 246 247 248
14 95 17 18 20 21 22 23 29 30 32 34 35 37 38 39 41 42 43 44 45 47 48 51 54 55 56 57 58 59 60 61 62 63 65 66 67 70 71 74 75 77 78 79 80 82 83 85 86 87 88 89 90 91 92 94 96 99 100 101 102 103 104 107 112 113 114 115 116 118 119 120 121 122 124 125 127 129 133 136 137 139 140 141 142 143 144 145 146 147 148 151 152 153 154 155 156 157 159 160 161 163 164 165 167 168 169 170 171 172 173 174 176 177 178 179 181 183 184 187 190 191 192 193 196 198 199 200 202 203 207 209 210 211 212 218 219 220 221 223 224 225 228 231 232 233 234 235 236 237 238 242 244 246 247 248
15 21
16 99
17 42 18 20 21 22 23 24 29 30 32 34 35 37 38 39 41 42 43 44 45 47 48 51 53 54 55 56 57 58 59 60 61 62 63 65 66 67 70 71 74 75 77 78 79 80 81 82 83 85 86 87 88 89 90 91 92 94 96 99 100 101 102 103 104 107 110 112 113 114 115 116 118 119 120 121 122 124 125 127 129 133 136 137 139 140 141 142 143 144 145 146 147 148 150 151 152 153 154 155 156 157 159 160 161 163 164 165 167 168 169 170 171 172 173 174 176 177 178 179 180 181 183 184 187 190 191 192 193 196 198 199 200 201 202 203 204 207 209 210 211 212 218 219 220 221 223 224 225 228 229 231 232 233 234 235 236 237 238 242 244 246 247 248 249
18 57 21 23 44 47 48 51 55 57 58 59 61 62 65 66 67 70 75 78 83 85 86 87 90 92 100 103 112 113 118 120 129 137 142 143 147 148 153 154 155 157 160 163 164 165 172 181 183 198 199 203 209 212 220 223 224 228 234 236 238 242
19 31
20 37 21 44 47 48 51 55 57 58 61 62 65 66 75 83 85 86 90 92 100 112 113 120 129 137 142 143 147 153 155 157 160 163 164 165 181 183 199 203 209 212 220 223 224 228 234 236 238
21 42 22 23 24 29 30 32 34 35 37 38 39 41 42 43 44 45 47 48 51 53 54 55 56 57 58 59 60 61 62 63 65 66 67 70 71 74 75 77 78 79 80 81 82 83 85 86 87 88 89 90 91 92 94 96 99 100 101 102 103 104 107 110 112 113 114 115 116 118 119 120 121 122 124 125 127 128 129 133 136 137 139 140 141 142 143 144 145 146 147 148 149 150 151 152 153 154 155 156 157 159 160 161 163 164 165 167 168 169 170 171 172 173 174 176 177 178 179 180 181 183 184 187 190 191 192 193 196 198 199 200 201 202 203 204 206 207 209 210 211 212 217 218 219 220 221 223 224 225 228 229 231 232 233 234 235 236 237 238 239 242 244 245 246 247 248 249
22 40 23 29 37 39 41 42 43 44 47 48 51 55 56 57 58 59 61 62 63 65 66 67 70 75 78 80 83 85 86 87 88 90 91 92 94 96 100 102 103 104 112 113 114 118 119 120 121 129 137 139 141 142 143 144 145 147 148 152 153 154 155 157 159 160 163 164 165 169 171 172 174 178 179 181 183 187 192 198 199 203 207 209 210 212 218 219 220 221 223 224 225 228 231 232 234 235 236 238 242 244 246
23 69 29 37 39 41 42 43 44 47 48 51 55 56 57 58 59 61 62 63 65 66 67 70 74 75 78 80 83 85 86 87 88 89 90 91 92 94 96 100 102 103 104 112 113 114 115 118 119 120 121 127 129 137 139 141 142 143 144 145 147 148 152 153 154 155 157 159 160 163 164 165 169 171 172 174 176 178 179 181 183 187 192 198 199 203 207 209 210 211 212 218 219 220 221 223 224 225 228 231 232 234 235 236 238 242 244 246 247 248
24 91 48 51 55 58 61 75 83 86 92 100 112 120 142 143 153 160 164 165 181 183 228 236
25 45
26 97 58
27 84
28 90
29 52 37 39 42 43 44 47 48 51 55 57 58 59 61 62 63 65 66 67 70 75 78 80 83 85 86 87 88 90 92 94 100 102 103 104 112 113 118 119 120 121 129 137 141 142 143 144 145 147 148 153 154 155 157 159 160 163 164 165 169 171 172 178 181 183 192 198 199 203 207 209 210 212 219 220 221 223 224 225 228 234 235 236 238 242 246
30 43 44 48 51 55 58 61 62 75 83 85 86 92 100 112 120 129 137 142 143 147 153 155 157 160 164 165 181 183 199 212 220 223 228 236
31 68 58 61 83 86 92 112
32 53 44 48 51 55 57 58 61 62 65 75 83 85 86 92 100 112 113 120 129 137 142 143 147 153 155 157 160 163 164 165 181 183 199 203 209 212 220 223 224 228 234 236 238
33 37
34 65 48 51 55 58 61 75 83 85 86 92 100 112 120 142 143 153 155 157 160 164 165 181 183 199 220 228 236
35 79 44 48 51 55 58 61 62 65 75 83 85 86 92 100 112 120 129 137 142 143 147 153 155 157 160 164 165 181 183 199 212 220 223 228 236 238
36 73
37 92 39 41 42 43 44 47 48 51 55 56 57 58 59 61 62 63 65 66 67 70 75 78 80 83 85 86 87 88 90 92 94 96 100 102 103 104 112 113 114 118 119 120 121 129 137 139 141 142 143 144 145 147 148 152 153 154 155 157 159 160 163 164 165 169 171 172 178 179 181 183 187 192 198 199 203 207 209 210 212 219 220 221 223 224 225 228 232 234 235 236 238 242 244 246
38 87 44 48 51 55 57 58 61 62 65 75 83 85 86 92 100 112 113 120 129 137 142 143 147 153 155 157 160 163 164 165 181 183 199 203 209 212 220 223 224 228 234 236 238
39 20 41 42 43 44 47 48 51 55 56 57 58 59 61 62 63 65 66 67 70 75 78 80 83 85 86 87 88 90 91 92 94 96 100 102 103 104 112 113 114 118 119 120 121 129 137 139 141 142 143 144 145 147 148 152 153 154 155 157 159 160 163 164 165 169 171 172 174 178 179 181 183 187 192 198 199 203 207 209 210 212 218 219 220 221 223 224 225 228 231 232 234 235 236 238 242 244 246
40 20 58 61 83 86 92 112 143 165
41 73 42 44 47 48 51 55 57 58 59 61 62 65 66 67 70 75 78 83 85 86 87 88 90 92 94 100 103 104 112 113 118 120 129 137 142 143 145 147 148 153 154 155 157 160 163 164 165 172 178 181 183 198 199 203 209 212 219 220 223 224 228 234 235 236 238 242
42 42 43 44 47 48 51 55 56 57 58 59 61 62 63 65 66 67 70 75 78 80 83 85 86 87 88 90 92 94 96 100 102 103 104 112 113 114 118 119 120 121 129 137 139 141 142 143 144 145 147 148 152 153 154 155 157 159 160 163 164 165 169 171 172 178 179 181 183 187 192 198 199 203 207 209 210 212 219 220 221 223 224 225 228 232 234 235 236 238 242 244 246
43 52 44 47 48 51 55 57 58 59 61 62 63 65 66 67 70 75 78 83 85 86 87 88 90 92 94 100 102 103 104 112 113 118 120 129 137 142 143 144 145 147 148 153 154 155 157 160 163 164 165 169 171 172 178 181 183 198 199 203 209 212 219 220 223 224 228 234 235 236 238 242
44 20 45 47 48 51 54 55 56 57 58 59 60 61 62 63 65 66 67 70 71 74 75 77 78 79 80 82 83 85 86 87 88 89 90 91 92 94 96 99 100 102 103 104 107 112 113 114 115 116 118 119 120 121 122 124 125 127 129 133 136 137 139 140 141 142 143 144 145 146 147 148 151 152 153 154 155 156 157 159 160 161 163 164 165 167 168 169 170 171 172 173 174 176 178 179 181 183 184 187 190 191 192 193 196 198 199 200 202 203 207 209 210 211 212 218 219 220 221 223 224 225 228 231 232 233 234 235 236 237 238 242 244 246 247 248
45 24 48 51 55 58 61 75 83 85 86 92 100 112 120 137 142 143 153 155 157 160 164 165 181 183 199 220 228 236
46 76
47 71 48 51 54 55 56 57 58 59 61 62 63 65 66 67 70 74 75 78 80 83 85 86 87 88 89 90 91 92 94 96 99 100 102 103 104 112 113 114 115 118 119 120 121 127 129 133 136 137 139 141 142 143 144 145 147 148 152 153 154 155 157 159 160 163 164 165 169 171 172 174 176 178 179 181 183 187 192 198 199 203 207 209 210 211 212 218 219 220 221 223 224 225 228 231 232 234 235 236 238 242 244 246 247 248
48 72 51 53 54 55 56 57 58 59 60 61 62 63 65 66 67 70 71 74 75 77 78 79 80 81 82 83 85 86 87 88 89 90 91 92 94 96 99 100 101 102 103 104 107 110 112 113 114 115 116 118 119 120 121 122 124 125 127 128 129 133 136 137 139 140 141 142 143 144 145 146 147 148 149 150 151 152 153 154 155 156 157 159 160 161 163 164 165 167 168 169 170 171 172 173 174 176 177 178 179 180 181 183 184 187 190 191 192 193 196 198 199 200 201 202 203 204 206 207 209 210 211 212 217 218 219 220 221 223 224 225 228 229 231 232 233 234 235 236 237 238 239 242 244 245 246 247 248 249
49 21 58 83 92
50 21
51 82 53 54 55 56 57 58 59 60 61 62 63 65 66 67 70 71 74 75 77 78 79 80 81 82 83 85 86 87 88 89 90 91 92 94 96 99 100 101 102 103 104 107 110 112 113 114 115 116 118 119 120 121 122 124 125 127 128 129 133 136 137 139 140 141 142 143 144 145 146 147 148 149 150 151 152 153 154 155 156 157 159 160 161 163 164 165 167 168 169 170 171 172 173 174 176 177 178 179 180 181 182 183 184 187 190 191 192 193 196 198 199 200 201 202 203 204 206 207 209 210 211 212 217 218 219 220 221 223 224 225 228 229 231 232 233 234 235 236 237 238 239 242 244 245 246 247 248 249
52 92
53 78 55 58 61 75 83 85 86 92 100 112 120 142 143 153 155 157 160 164 165 181 183 220 228 236
54 87 55 57 58 61 62 65 66 75 83 85 86 90 92 100 112 113 120 129 137 142 143 147 153 155 157 160 163 164 165 181 183 199 203 209 212 220 223 224 228 234 236 238
55 50 56 57 58 59 60 61 62 63 65 66 67 70 71 74 75 77 78 79 80 81 82 83 85 86 87 88 89 90 91 92 94 95 96 97 99 100 101 102 103 104 105 107 108 110 112 113 114 115 116 118 119 120 121 122 124 125 127 128 129 133 136 137 139 140 141 142 143 144 145 146 147 148 149 150 151 152 153 154 155 156 157 159 160 161 163 164 165 167 168 169 170 171 172 173 174 176 177 178 179 180 181 182 183 184 187 190 191 192 193 196 198 199 200 201 202 203 204 206 207 209 210 211 212 217 218 219 220 221 223 224 225 227 228 229 231 232 233 234 235 236 237 238 239 242 244 245 246 247 248 249
56 41 57 58 59 61 62 65 66 67 70 75 78 83 85 86 87 88 90 92 94 100 103 104 112 113 118 120 129 137 142 143 145 147 148 153 154 155 157 160 163 164 165 169 172 178 181 183 198 199 203 209 212 219 220 223 224 228 234 235 236 238 242
57 31 58 59 61 62 63 65 66 67 70 71 74 75 77 78 79 80 82 83 85 86 87 88 89 90 91 92 94 96 99 100 102 103 104 107 112 113 114 115 118 119 120 121 122 124 125 127 129 133 136 137 139 141 142 143 144 145 146 147 148 152 153 154 155 156 157 159 160 161 163 164 165 167 169 170 171 172 173 174 176 178 179 181 183 184 187 190 192 196 198 199 200 203 207 209 210 211 212 218 219 220 221 223 224 225 228 231 232 234 235 236 238 242 244 246 247 248
58 73 59 60 61 62 63 65 66 67 70 71 72 74 75 77 78 79 80 81 82 83 85 86 87 88 89 90 91 92 94 95 96 97 98 99 100 101 102 103 104 105 107 108 110 112 113 114 115 116 117 118 119 120 121 122 124 125 126 127 128 129 133 136 137 139 140 141 142 143 144 145 146 147 148 149 150 151 152 153 154 155 156 157 159 160 161 163 164 165 167 168 169 170 171 172 173 174 176 177 178 179 180 181 182 183 184 187 188 190 191 192 193 196 198 199 200 201 202 203 204 206 207 209 210 211 212 213 215 217 218 219 220 221 222 223 224 225 227 228 229 230 231 232 233 234 235 236 237 238 239 242 243 244 245 246 247 248 249
59 89 61 62 63 65 66 67 70 74 75 78 80 83 85 86 87 88 89 90 91 92 94 96 100 102 103 104 112 113 114 115 118 119 120 121 127 129 137 139 141 142 143 144 145 147 148 152 153 154 155 157 159 160 163 164 165 169 171 172 174 176 178 179 181 183 187 192 198 199 203 207 209 210 211 212 218 219 220 221 223 224 225 228 231 232 234 235 236 238 242 244 246 247 248
60 59 61 75 83 85 86 92 100 112 120 137 142 143 147 153 155 157 160 164 165 181 183 199 212 220 223 228 236
61 88 62 63 65 66 67 70 71 72 74 75 77 78 79 80 81 82 83 85 86 87 88 89 90 91 92 94 95 96 97 98 99 100 101 102 103 104 105 107 108 110 112 113 114 115 116 117 118 119 120 121 122 124 125 126 127 128 129 133 136 137 139 140 141 142 143 144 145 146 147 148 149 150 151 152 153 154 155 156 157 159 160 161 163 164 165 167 168 169 170 171 172 173 174 176 177 178 179 180 181 182 183 184 187 188 190 191 192 193 196 198 199 200 201 202 203 204 206 207 209 210 211 212 217 218 219 220 221 222 223 224 225 227 228 229 230 231 232 233 234 235 236 237 238 239 242 244 245 246 247 248 249
62 40 63 65 66 67 70 71 74 75 77 78 79 80 82 83 85 86 87 88 89 90 91 92 94 96 99 100 102 103 104 107 112 113 114 115 118 119 120 121 122 124 125 127 129 133 136 137 139 141 142 143 144 145 146 147 148 151 152 153 154 155 156 157 159 160 161 163 164 165 167 168 169 170 171 172 173 174 176 178 179 181 183 184 187 190 192 193 196 198 199 200 203 207 209 210 211 212 218 219 220 221 223 224 225 228 231 232 234 235 236 238 242 244 246 247 248
63 71 65 66 67 70 75 78 80 83 85 86 87 88 90 92 94 100 102 103 104 112 113 114 118 119 120 121 129 137 141 142 143 144 145 147 148 153 154 155 157 159 160 163 164 165 169 171 172 178 179 181 183 187 192 198 199 203 207 209 210 212 219 220 221 223 224 225 228 232 234 235 236 238 242 244 246
64 69
65 45 66 67 70 71 74 75 77 78 79 80 82 83 85 86 87 88 89 90 91 92 94 96 99 100 102 103 104 107 112 113 114 115 118 119 120 121 122 124 125 127 129 133 136 137 139 141 142 143 144 145 146 147 148 152 153 154 155 156 157 159 160 161 163 164 165 167 168 169 170 171 172 173 174 176 178 179 181 183 184 187 190 192 196 198 199 200 203 207 209 210 211 212 218 219 220 221 223 224 225 228 231 232 234 235 236 238 242 244 246 247 248
66 57 67 70 74 75 78 80 83 85 86 87 88 89 90 91 92 94 96 99 100 102 103 104 112 113 114 115 118 119 120 121 127 129 133 136 137 139 141 142 143 144 145 147 148 152 153 154 155 157 159 160 163 164 165 169 171 172 174 176 178 179 181 183 187 192 198 199 203 207 209 210 211 212 218 219 220 221 223 224 225 228 231 232 234 235 236 238 242 244 246 247 248
67 49 70 74 75 78 80 83 85 86 87 88 89 90 91 92 94 96 100 102 103 104 112 113 114 118 119 120 121 129 137 139 141 142 143 144 145 147 148 152 153 154 155 157 159 160 163 164 165 169 171 172 174 176 178 179 181 183 187 192 198 199 203 207 209 210 212 218 219 220 221 223 224 225 228 231 232 234 235 236 238 242 244 246
68 68
69 84
70 32 74 75 78 80 83 85 86 87 88 89 90 91 92 94 96 100 102 103 104 112 113 114 118 119 120 121 129 137 139 141 142 143 144 145 147 148 152 153 154 155 157 159 160 163 164 165 169 171 172 174 176 178 179 181 183 187 192 198 199 203 207 209 210 212 218 219 220 221 223 224 225 228 231 232 234 235 236 238 242 244 246 247
71 69 75 83 85 86 92 100 112 113 120 129 137 142 143 147 153 155 157 160 163 164 165 181 183 199 203 209 212 220 223 224 228 234 236 238
72 77 83 86 92 112 143 160 165
73 92
74 98 75 78 83 85 86 87 90 92 100 103 112 113 118 120 129 137 142 143 147 148 153 155 157 160 163 164 165 181 183 198 199 203 209 212 220 223 224 228 234 236 238 242
75 57 77 78 79 80 81 82 83 85 86 87 88 89 90 91 92 94 95 96 97 98 99 100 101 102 103 104 105 107 108 110 112 113 114 115 116 118 119 120 121 122 124 125 127 128 129 133 136 137 139 140 141 142 143 144 145 146 147 148 149 150 151 152 153 154 155 156 157 159 160 161 163 164 165 167 168 169 170 171 172 173 174 176 177 178 179 180 181 182 183 184 187 190 191 192 193 196 198 199 200 201 202 203 204 206 207 209 210 211 212 217 218 219 220 221 223 224 225 227 228 229 231 232 233 234 235 236 237 238 239 242 244 245 246 247 248 249
76 39
77 32 83 85 86 92 100 112 120 129 137 142 143 147 153 155 157 160 164 165 181 183 199 212 220 223 224 228 234 236 238
78 23 80 83 85 86 87 88 89 90 91 92 94 96 100 102 103 104 112 113 114 118 119 120 121 129 137 139 141 142 143 144 145 147 148 152 153 154 155 157 159 160 163 164 165 169 171 172 174 176 178 179 181 183 187 192 198 199 203 207 209 210 212 218 219 220 221 223 224 225 228 231 232 234 235 236 238 242 244 246 247
79 99 83 85 86 92 100 112 120 129 137 142 143 147 153 155 157 160 163 164 165 181 183 199 209 212 220 223 224 228 234 236 238
80 91 83 85 86 87 88 90 92 94 100 102 103 104 112 113 118 119 120 121 129 137 141 142 143 144 145 147 148 153 154 155 157 159 160 163 164 165 169 171 172 178 181 183 192 198 199 203 207 209 210 212 219 220 221 223 224 225 228 234 235 236 238 242 246
81 48 83 86 92 100 112 142 143 153 160 164 165 181 183 228 236
82 21 83 85 86 92 100 112 120 129 137 142 143 147 153 155 157 160 163 164 165 181 183 199 212 220 223 224 228 234 236 238
83 70 85 86 87 88 89 90 91 92 94 95 96 97 98 99 100 101 102 103 104 105 107 108 110 112 113 114 115 116 117 118 119 120 121 122 124 125 126 127 128 129 133 136 137 139 140 141 142 143 144 145 146 147 148 149 150 151 152 153 154 155 156 157 159 160 161 163 164 165 167 168 169 170 171 172 173 174 176 177 178 179 180 181 182 183 184 187 188 190 191 192 193 196 198 199 200 201 202 203 204 206 207 209 210 211 212 217 218 219 220 221 222 223 224 225 227 228 229 230 231 232 233 234 235 236 237 238 239 242 244 245 246 247 248 249
84 43
85 73 86 87 88 89 90 91 92 94 96 99 100 101 102 103 104 107 112 113 114 115 116 118 119 120 121 122 124 125 127 129 133 136 137 139 140 141 142 143 144 145 146 147 148 151 152 153 154 155 156 157 159 160 161 163 164 165 167 168 169 170 171 172 173 174 176 177 178 179 181 183 184 187 190 191 192 193 196 198 199 200 202 203 204 207 209 210 211 212 218 219 220 221 223 224 225 228 231 232 233 234 235 236 237 238 242 244 246 247 248
86 69 87 88 89 90 91 92 94 95 96 97 98 99 100 101 102 103 104 105 107 108 110 112 113 114 115 116 117 118 119 120 121 122 124 125 126 127 128 129 133 136 137 139 140 141 142 143 144 145 146 147 148 149 150 151 152 153 154 155 156 157 159 160 161 163 164 165 167 168 169 170 171 172 173 174 176 177 178 179 180 181 182 183 184 187 188 190 191 192 193 196 198 199 200 201 202 203 204 206 207 209 210 211 212 217 218 219 220 221 222 223 224 225 227 228 229 230 231 232 233 234 235 236 237 238 239 242 244 245 246 247 248 249
87 65 88 89 90 91 92 94 96 100 102 103 104 112 113 114 115 118 119 120 121 127 129 137 139 141 142 143 144 145 147 148 152 153 154 155 157 159 160 163 164 165 169 171 172 174 176 178 179 181 183 187 192 198 199 203 207 209 210 212 218 219 220 221 223 224 225 228 231 232 234 235 236 238 242 244 246 247 248
88 57 90 91 92 94 96 100 102 103 104 112 113 114 118 119 120 121 129 137 139 141 142 143 144 145 147 148 152 153 154 155 157 159 160 163 164 165 169 171 172 174 178 179 181 183 187 192 198 199 203 207 209 210 212 218 219 220 221 223 224 225 228 231 232 234 235 236 238 242 244 246
89 67 90 92 100 103 112 113 118 120 129 137 142 143 147 148 153 154 155 157 160 163 164 165 172 181 183 198 199 203 209 212 220 223 224 228 234 236 238 242
90 28 91 92 94 96 99 100 102 103 104 112 113 114 115 118 119 120 121 127 129 133 136 137 139 141 142 143 144 145 147 148 152 153 154 155 157 159 160 163 164 165 169 171 172 174 176 178 179 181 183 187 192 198 199 203 207 209 210 211 212 218 219 220 221 223 224 225 228 231 232 234 235 236 238 242 244 246 247 248
91 84 92 100 103 112 113 118 120 129 137 142 143 145 147 148 153 154 155 157 160 163 164 165 172 178 181 183 198 199 203 209 212 220 223 224 228 234 236 238 242
92 42 94 95 96 97 98 99 100 101 102 103 104 105 107 108 110 112 113 114 115 116 117 118 119 120 121 122 124 125 126 127 128 129 133 136 137 139 140 141 142 143 144 145 146 147 148 149 150 151 152 153 154 155 156 157 159 160 161 163 164 165 167 168 169 170 171 172 173 174 176 177 178 179 180 181 182 183 184 187 188 190 191 192 193 196 198 199 200 201 202 203 204 206 207 209 210 211 212 217 218 219 220 221 222 223 224 225 227 228 229 230 231 232 233 234 235 236 237 238 239 242 244 245 246 247 248 249
93 61
94 92 100 102 103 104 112 113 114 118 119 120 121 129 137 139 141 142 143 144 145 147 148 153 154 155 157 159 160 163 164 165 169 171 172 178 179 181 183 187 192 198 199 203 207 209 210 212 219 220 221 223 224 225 228 232 234 235 236 238 242 244 246
95 82 112 143 160 165 181 183 228
96 34 100 103 104 112 113 118 120 129 137 142 143 145 147 148 153 154 155 157 160 163 164 165 172 178 181 183 198 199 203 209 212 219 220 223 224 228 234 235 236 238 242
97 74 112 143 160 165 181 183 228
98 55 112 143 160 165
99 60 100 112 113 120 129 137 142 143 147 153 155 157 160 163 164 165 181 183 199 203 209 212 220 223 224 228 234 236 238
100 69 101 102 103 104 107 110 112 113 114 115 116 118 119 120 121 122 124 125 127 128 129 133 136 137 139 140 141 142 143 144 145 146 147 148 150 151 152 153 154 155 156 157 159 160 161 163 164 165 167 168 169 170 171 172 173 174 176 177 178 179 180 181 183 184 187 190 191 192 193 196 198 199 200 201 202 203 204 206 207 209 210 211 212 218 219 220 221 223 224 225 228 229 231 232 233 234 235 236 237 238 242 244 245 246 247 248 249
101 26 112 120 142 143 153 155 157 160 164 165 181 183 199 220 228 236
102 25 103 104 112 113 118 119 120 121 129 137 141 142 143 144 145 147 148 153 154 155 157 159 160 163 164 165 169 171 172 178 179 181 183 187 192 198 199 203 207 209 210 212 219 220 221 223 224 225 228 232 234 235 236 238 242 246
103 67 104 112 113 114 115 118 119 120 121 127 129 137 139 141 142 143 144 145 147 148 152 153 154 155 157 159 160 163 164 165 169 171 172 174 176 178 179 181 183 187 192 198 199 203 207 209 210 211 212 218 219 220 221 223 224 225 228 231 232 234 235 236 238 242 244 246 247 248
104 77 112 113 114 118 119 120 121 129 137 139 141 142 143 144 145 147 148 152 153 154 155 157 159 160 163 164 165 169 171 172 178 179 181 183 187 192 198 199 203 207 209 210 212 219 220 221 223 224 225 228 232 234 235 236 238 242 244 246
105 67 112 143 160 165 181 183
106 79
107 47 112 120 129 137 142 143 147 153 155 157 160 163 164 165 181 183 199 212 220 223 224 228 234 236 238
108 84 112 143 160 165 183
109 50
110 21 112 120 142 143 153 160 164 165 181 183 228 236
111 87
112 83 113 114 115 116 117 118 119 120 121 122 124 125 126 127 128 129 133 136 137 139 140 141 142 143 144 145 146 147 148 149 150 151 152 153 154 155 156 157 159 160 161 163 164 165 167 168 169 170 171 172 173 174 176 177 178 179 180 181 182 183 184 187 188 190 191 192 193 196 198 199 200 201 202 203 204 206 207 209 210 211 212 217 218 219 220 221 222 223 224 225 227 228 229 230 231 232 233 234 235 236 237 238 239 242 244 245 246 247 248 249
113 44 114 115 118 119 120 121 127 129 133 136 137 139 141 142 143 144 145 147 148 152 153 154 155 157 159 160 161 163 164 165 169 171 172 174 176 178 179 181 183 184 187 192 196 198 199 203 207 209 210 211 212 218 219 220 221 223 224 225 228 231 232 234 235 236 238 242 244 246 247 248
114 88 118 120 129 137 142 143 145 147 148 153 154 155 157 160 163 164 165 169 172 178 181 183 198 199 203 209 212 219 220 223 224 228 234 235 236 238 242
115 78 120 129 137 142 143 147 153 155 157 160 163 164 165 181 183 199 203 209 212 220 223 224 228 234 236 238 242
116 53 120 137 142 143 147 153 155 157 160 164 165 181 183 199 220 223 228 236
117 78
118 37 119 120 121 129 137 139 141 142 143 144 145 147 148 152 153 154 155 157 159 160 163 164 165 169 171 172 174 176 178 179 181 183 187 192 198 199 203 207 209 210 212 218 219 220 221 223 224 225 228 231 232 234 235 236 238 242 244 246 247
119 47 120 121 129 137 141 142 143 144 145 147 148 153 154 155 157 159 160 163 164 165 169 171 172 178 181 183 192 198 199 203 207 209 210 212 219 220 221 223 224 225 228 234 235 236 238 242 246
120 52 121 122 124 125 127 129 133 136 137 139 140 141 142 143 144 145 146 147 148 150 151 152 153 154 155 156 157 159 160 161 163 164 165 167 168 169 170 171 172 173 174 176 177 178 179 181 183 184 187 190 191 192 193 196 198 199 200 202 203 204 207 209 210 211 212 218 219 220 221 223 224 225 228 229 231 232 233 234 235 236 237 238 242 244 246 247 248 249
121 32 129 137 142 143 144 145 147 148 153 154 155 157 159 160 163 164 165 169 171 172 178 181 183 198 199 203 209 210 212 219 220 221 223 224 228 234 235 236 238 242 246
122 88 129 137 142 143 147 153 155 157 160 164 165 181 183 199 212 220 223 224 228 234 236 238
123 85
124 82 129 137 142 143 147 153 155 157 160 163 164 165 181 183 199 212 220 223 224 228 234 236 238
125 55 129 137 142 143 147 153 155 157 160 163 164 165 181 183 199 209 212 220 223 224 228 234 236 238
126 41 143 165
127 60 129 137 142 143 147 153 155 157 160 163 164 165 181 183 199 203 209 212 220 223 224 228 234 236 238 242
128 66 142 143 153 160 164 165 181 183 228
129 78 133 136 137 139 141 142 143 144 145 146 147 148 151 152 153 154 155 156 157 159 160 161 163 164 165 167 168 169 170 171 172 173 174 176 178 179 181 183 184 187 190 192 196 198 199 200 203 207 209 210 211 212 218 219 220 221 223 224 225 228 231 232 234 235 236 238 242 244 246 247 248
130 72
131 34
132 64
133 20 137 142 143 147 153 155 157 160 163 164 165 181 183 199 203 209 212 220 223 224 228 234 236 238
134 60
135 100
136 62 137 142 143 147 153 155 157 160 163 164 165 181 183 199 203 209 212 220 223 224 228 234 236 238
137 80 139 140 141 142 143 144 145 146 147 148 151 152 153 154 155 156 157 159 160 161 163 164 165 167 168 169 170 171 172 173 174 176 178 179 181 183 184 187 190 191 192 193 196 198 199 200 202 203 207 209 210 211 212 218 219 220 221 223 224 225 228 231 232 233 234 235 236 237 238 242 244 246 247 248
138 34
139 68 142 143 145 147 148 153 154 155 157 160 163 164 165 169 172 178 181 183 198 199 203 209 212 219 220 223 224 228 234 235 236 238 242
140 38 142 143 147 153 155 157 160 164 165 181 183 199 220 223 228 236
141 32 142 143 144 145 147 148 153 154 155 157 159 160 163 164 165 169 171 172 178 181 183 198 199 203 209 210 212 219 220 221 223 224 228 234 235 236 238 242 246
142 32 143 144 145 146 147 148 149 150 151 152 153 154 155 156 157 159 160 161 163 164 165 167 168 169 170 171 172 173 174 176 177 178 179 180 181 182 183 184 187 190 191 192 193 196 198 199 200 201 202 203 204 206 207 209 210 211 212 217 218 219 220 221 223 224 225 228 229 231 232 233 234 235 236 237 238 239 242 244 245 246 247 248 249
143 37 144 145 146 147 148 149 150 151 152 153 154 155 156 157 159 160 161 163 164 165 167 168 169 170 171 172 173 174 176 177 178 179 180 181 182 183 184 187 188 190 191 192 193 196 198 199 200 201 202 203 204 206 207 209 210 211 212 217 218 219 220 221 223 224 225 227 228 229 230 231 232 233 234 235 236 237 238 239 242 244 245 246 247 248 249
144 82 145 147 148 153 154 155 157 159 160 163 164 165 169 171 172 178 179 181 183 187 192 198 199 203 207 209 210 212 219 220 221 223 224 225 228 232 234 235 236 238 242 246
145 98 147 148 152 153 154 155 157 159 160 163 164 165 169 171 172 174 178 179 181 183 187 192 198 199 203 207 209 210 212 218 219 220 221 223 224 225 228 231 232 234 235 236 238 242 244 246
146 90 147 153 155 157 160 163 164 165 181 183 199 212 220 223 224 228 234 236 238
147 58 148 151 152 153 154 155 156 157 159 160 161 163 164 165 167 168 169 170 171 172 173 174 176 178 179 181 183 184 187 190 191 192 193 196 198 199 200 202 203 207 209 210 211 212 218 219 220 221 223 224 225 228 231 232 233 234 235 236 237 238 242 244 246 247 248
148 97 152 153 154 155 157 159 160 163 164 165 169 171 172 174 176 178 179 181 183 187 192 198 199 203 207 209 210 212 218 219 220 221 223 224 225 228 231 232 234 235 236 238 242 244 246 247 248
149 56 153 160 165 181 183 228
150 34 153 160 164 165 181 183 228 236
151 70 153 155 157 160 164 165 181 183 199 212 220 223 228 236
152 39 153 154 155 157 160 163 164 165 172 178 181 183 198 199 203 209 212 219 220 223 224 228 234 235 236 238 242
153 56 154 155 156 157 159 160 161 163 164 165 167 168 169 170 171 172 173 174 176 177 178 179 180 181 183 184 187 190 191 192 193 196 198 199 200 201 202 203 204 206 207 209 210 211 212 217 218 219 220 221 223 224 225 228 229 231 232 233 234 235 236 237 238 239 242 244 245 246 247 248 249
154 69 155 157 159 160 163 164 165 169 171 172 174 178 179 181 183 187 192 198 199 203 207 209 210 212 218 219 220 221 223 224 225 228 231 232 234 235 236 238 242 244 246
155 36 156 157 159 160 161 163 164 165 167 168 169 170 171 172 173 174 176 177 178 179 181 183 184 187 190 191 192 193 196 198 199 200 202 203 204 207 209 210 211 212 218 219 220 221 223 224 225 228 229 231 232 233 234 235 236 237 238 242 244 246 247 248 249
156 20 157 160 164 165 181 183 199 212 220 223 224 228 234 236 238
157 99 159 160 161 163 164 165 167 168 169 170 171 172 173 174 176 177 178 179 181 183 184 187 190 191 192 193 196 198 199 200 202 203 204 207 209 210 211 212 218 219 220 221 223 224 225 228 229 231 232 233 234 235 236 237 238 242 244 246 247 248 249
158 84
159 53 160 163 164 165 169 171 172 178 181 183 192 198 199 203 209 210 212 219 220 221 223 224 225 228 234 235 236 238 242 246
160 27 161 163 164 165 167 168 169 170 171 172 173 174 176 177 178 179 180 181 182 183 184 187 190 191 192 193 196 198 199 200 201 202 203 204 206 207 209 210 211 212 217 218 219 220 221 223 224 225 227 228 229 231 232 233 234 235 236 237 238 239 242 244 245 246 247 248 249
161 88 163 164 165 181 183 199 209 212 220 223 224 228 234 236 238
162 53
163 42 164 165 167 169 170 171 172 173 174 176 178 179 181 183 184 187 190 192 196 198 199 200 203 207 209 210 211 212 218 219 220 221 223 224 225 228 231 232 234 235 236 238 242 244 246 247 248
164 45 165 167 168 169 170 171 172 173 174 176 177 178 179 180 181 183 184 187 190 191 192 193 196 198 199 200 201 202 203 204 206 207 209 210 211 212 218 219 220 221 223 224 225 228 229 231 232 233 234 235 236 237 238 242 244 245 246 247 248 249
165 42 167 168 169 170 171 172 173 174 176 177 178 179 180 181 182 183 184 187 188 190 191 192 193 196 198 199 200 201 202 203 204 206 207 209 210 211 212 217 218 219 220 221 223 224 225 227 228 229 230 231 232 233 234 235 236 237 238 239 242 244 245 246 247 248 249
166 31
167 54 181 183 199 212 220 223 224 228 234 236 238
168 60 181 183 199 212 220 223 228 234 236 238
169 55 171 172 178 179 181 183 187 192 198 199 203 207 209 210 212 219 220 221 223 224 225 228 232 234 235 236 238 242 244 246
170 27 181 183 199 212 220 223 224 228 234 236 238
171 36 172 178 179 181 183 187 192 198 199 203 207 209 210 212 219 220 221 223 224 225 228 232 234 235 236 238 242 246
172 31 174 178 179 181 183 187 192 198 199 203 207 209 210 212 218 219 220 221 223 224 225 228 231 232 234 235 236 238 242 244 246
173 39 181 183 199 212 220 223 224 228 234 236 238
174 91 178 181 183 198 199 203 209 212 219 220 223 224 228 234 236 238 242
175 45
176 97 181 183 198 199 203 209 212 220 223 224 228 234 236 238 242
177 26 181 183 199 220 228 236
178 80 179 181 183 187 192 198 199 203 207 209 210 212 218 219 220 221 223 224 225 228 231 232 234 235 236 238 242 244 246
179 41 181 183 198 199 203 209 212 219 220 223 224 228 234 235 236 238 242
180 56 181 183 228 236
181 70 182 183 184 187 190 191 192 193 196 198 199 200 201 202 203 204 206 207 209 210 211 212 217 218 219 220 221 223 224 225 227 228 229 231 232 233 234 235 236 237 238 239 242 244 245 246 247 248 249
182 97 183 228
183 48 184 187 190 191 192 193 196 198 199 200 201 202 203 204 206 207 209 210 211 212 217 218 219 220 221 223 224 225 227 228 229 231 232 233 234 235 236 237 238 239 242 244 245 246 247 248 249
184 87 199 203 209 212 220 223 224 228 234 236 238
185 23
186 32
187 75 198 199 203 209 212 219 220 223 224 228 234 235 236 238 242
188 100
189 97
190 51 199 212 220 223 224 228 234 236 238
191 78 199 220 223 228 236
192 78 198 199 203 209 210 212 219 220 221 223 224 228 234 235 236 238 242 246
193 21 199 212 220 223 228 236
194 72
195 72
196 79 199 209 212 220 223 224 228 234 236 238
197 46
198 30 199 203 207 209 210 212 218 219 220 221 223 224 225 228 231 232 234 235 236 238 242 244 246 247 248
199 48 200 202 203 207 209 210 211 212 218 219 220 221 223 224 225 228 231 232 233 234 235 236 237 238 242 244 246 247 248
200 27 209 212 220 223 224 228 234 236 238
201 95 228 236
202 48 220 223 228 236
203 67 207 209 210 211 212 218 219 220 221 223 224 225 228 231 232 234 235 236 238 242 244 246 247 248
204 58 220 228 236
205 46
206 92 228
207 21 209 210 212 219 220 221 223 224 228 234 235 236 238 242
208 82
209 91 210 211 212 218 219 220 221 223 224 225 228 231 232 234 235 236 238 242 244 246 247 248
210 40 212 219 220 221 223 224 225 228 234 235 236 238 242 246
211 56 212 220 223 224 228 234 236 238
212 24 218 219 220 221 223 224 225 228 231 232 234 235 236 238 242 244 246 247 248
213 94
214 44
215 91
216 92
217 81 228
218 24 219 220 223 224 228 234 236 238 242
219 84 220 221 223 224 225 228 232 234 235 236 238 242 244 246
220 44 221 223 224 225 228 229 231 232 233 234 235 236 237 238 242 244 246 247 248 249
221 83 223 224 225 228 234 235 236 238 242 246
222 37
223 98 224 225 228 231 232 233 234 235 236 237 238 242 244 246 247 248
224 85 225 228 231 232 234 235 236 238 242 244 246 247 248
225 88 228 234 235 236 238 242 246
226 95
227 29 228
228 35 229 231 232 233 234 235 236 237 238 239 242 244 245 246 247 248 249
229 100 236
230 55
231 48 234 236 238 242
232 27 234 235 236 238 242
233 20 236
234 66 235 236 238 242 244 246 247 248
235 62 236 238 242 244 246
236 52 237 238 242 244 246 247 248 249
237 88
238 59 242 244 246 247 248
239 97
240 91
241 81
242 81 244 246 247 248
243 86
244 48
245 43
246 60
247 72
248 88
249 90
250 48
